SCIP version 5.0.0 [precision: 8 byte] [memory: block] [mode: optimized] [LP solver: NONE] [GitHash: 3bbd232]
Copyright (C) 2002-2017 Konrad-Zuse-Zentrum fuer Informationstechnik Berlin (ZIB)

External codes: 
  Readline EditLine w  GNU library for command line editing (gnu.org/s/readline)
  CppAD 20160000.1     Algorithmic Differentiation of C++ algorithms developed by B. Bell (www.coin-or.org/CppAD)
  ZLIB 1.2.5           General purpose compression library by J. Gailly and M. Adler (zlib.net)
  GMP 6.1.2            GNU Multiple Precision Arithmetic Library developed by T. Granlund (gmplib.org)

user parameter file <scip.set> not found - using default parameters

read problem <../../Split_data/output/breast/7/3_sample_breast.logreg>
============

File name	:	../../Split_data/output/breast/7/3_sample_breast.logreg
Problem name 	:	3_sample_breast
Number of data	:	155
Number of var	:	33
The given data has linear independence

[dim=1] time: 0.00963
[dim=2] time: 0.016216
[dim=3] time: 0.021606
[dim=4] time: 0.025798
[dim=5] time: 0.02978
[dim=6] time: 0.034114
[dim=7] time: 0.037804
[dim=8] time: 0.04132
[dim=9] time: 0.044791
[dim=10] time: 0.048263
[dim=11] Time of forward = 0.051505sec.
AIC: 129.575
k: 10

[dim=33] time: 0.018853
[dim=32] time: 0.029697
[dim=31] time: 0.038472
[dim=30] time: 0.050827
[dim=29] time: 0.067461
[dim=28] time: 0.076777
[dim=27] time: 0.086769
[dim=26] time: 0.094392
[dim=25] time: 0.107452
[dim=24] time: 0.117635
[dim=23] Time of backward = 0.124317sec.
AIC: 117.49
k: 24
